695118
695118
682357
682357
682357
682219
681697
677405
675841
675841
675701
666685
658717
658602
658334
643675
643675
643675
643675
643675
643675
642522
642522
642522
641372
641372
635478
633365
633365
628171
628171
626448
626448
623019
623019
619305
618932
599538
599538
599538
599538
599538
599538
599538
595151
595151
595151
595151
595151
595151
595151
595151
595151
595151
595151
595151
589937
589937
589937
588938
586687
586687
582611
582611
579524
573886
573886
573886
573886
573886
572890
572688
572688
572688
572688
568588
563212
563212
563212
563212
563212
556656
554118
554118
551409
551409
549709
546910
546910
546910
545769
545769
545769
544537
544537
544474
539942
539942
539942
539942
